\ This file has been generated by DOcplex
\ ENCODING=ISO-8859-1
\Problem name: dectiger central planner reward matrix

Minimize
 obj:
Subject To
 c1: R(0,(0,_0)) - R(0,(0,_1)) = 18
 c2: _bool#1 = 0
 c3: R(0,(0,_0)) - R(0,(0,_2)) = -62
 c4: _bool#2 = 0
 c5: = 0
 c6: _bool#3 = 0
 c7: R(0,(0,_1)) - R(0,(0,_2)) = -80
 c8: _bool#4 = 0
 c9: - R(0,(0,_1)) + R(0,(0,_2)) = 80
 c10: _bool#5 = 0
 c11: = 0
 c12: _bool#6 = 0
 c13: = 0
 c14: _bool#7 = 0
 c15: R(0,(1,_0)) - R(0,(1,_2)) = -104
 c16: _bool#8 = 0
 c17: - R(0,(1,_0)) + R(0,(1,_1)) = -16
 c18: _bool#9 = 0
 c19: R(0,(1,_1)) - R(0,(1,_2)) = -120
 c20: _bool#10 = 0
 c21: - R(0,(1,_0)) + R(0,(1,_2)) = 104
 c22: _bool#11 = 0
 c23: = 0
 c24: _bool#12 = 0
 c25: = 0
 c26: _bool#13 = 0
 c27: R(0,(2,_0)) - R(0,(2,_1)) = -44
 c28: _bool#14 = 0
 c29: - R(0,(2,_0)) + R(0,(2,_1)) = 44
 c30: _bool#15 = 0
 c31: = 0
 c32: _bool#16 = 0
 c33: - R(0,(2,_0)) + R(0,(2,_2)) = 14
 c34: _bool#17 = 0
 c35: - R(0,(2,_1)) + R(0,(2,_2)) = -30
 c36: _bool#18 = 0
 c37: R(1,(0,_0)) - R(1,(0,_1)) = -2
 c38: _bool#19 = 0
 c39: R(1,(0,_0)) - R(1,(0,_2)) = 98
 c40: _bool#20 = 0
 c41: = 0
 c42: _bool#21 = 0
 c43: R(1,(0,_1)) - R(1,(0,_2)) = 100
 c44: _bool#22 = 0
 c45: - R(1,(0,_1)) + R(1,(0,_2)) = -100
 c46: _bool#23 = 0
 c47: = 0
 c48: _bool#24 = 0
 c49: = 0
 c50: _bool#25 = 0
 c51: R(1,(1,_0)) - R(1,(1,_2)) = 96
 c52: _bool#26 = 0
 c53: - R(1,(1,_0)) + R(1,(1,_1)) = 34
 c54: _bool#27 = 0
 c55: R(1,(1,_1)) - R(1,(1,_2)) = 130
 c56: _bool#28 = 0
 c57: - R(1,(1,_0)) + R(1,(1,_2)) = -96
 c58: _bool#29 = 0
 c59: = 0
 c60: _bool#30 = 0
 c61: = 0
 c62: _bool#31 = 0
 c63: R(1,(2,_0)) - R(1,(2,_1)) = -2
 c64: _bool#32 = 0
 c65: - R(1,(2,_0)) + R(1,(2,_1)) = 2
 c66: _bool#33 = 0
 c67: = 0
 c68: _bool#34 = 0
 c69: - R(1,(2,_0)) + R(1,(2,_2)) = 82
 c70: _bool#35 = 0
 c71: - R(1,(2,_1)) + R(1,(2,_2)) = 80
 c72: _bool#36 = 0
 c73: R(0,(0,_0)) - R(0,(1,_0)) = 98
 c74: _bool#37 = 0
 c75: R(0,(0,_0)) - R(0,(2,_0)) = -2
 c76: _bool#38 = 0
 c77: - R(0,(0,_0)) + R(0,(1,_0)) = -98
 c78: _bool#39 = 0
 c79: R(0,(1,_0)) - R(0,(2,_0)) = -100
 c80: _bool#40 = 0
 c81: - R(0,(0,_0)) + R(0,(2,_0)) = 2
 c82: _bool#41 = 0
 c83: - R(0,(1,_0)) + R(0,(2,_0)) = 100
 c84: _bool#42 = 0
 c85: R(0,(0,_1)) - R(0,(1,_1)) = -82
 c86: _bool#43 = 0
 c87: R(0,(0,_1)) - R(0,(2,_1)) = -2
 c88: _bool#44 = 0
 c89: - R(0,(0,_1)) + R(0,(1,_1)) = 82
 c90: _bool#45 = 0
 c91: R(0,(1,_1)) - R(0,(2,_1)) = 80
 c92: _bool#46 = 0
 c93: - R(0,(0,_1)) + R(0,(2,_1)) = 2
 c94: _bool#47 = 0
 c95: - R(0,(1,_1)) + R(0,(2,_1)) = -80
 c96: _bool#48 = 0
 c97: R(0,(0,_2)) - R(0,(1,_2)) = 96
 c98: _bool#49 = 0
 c99: R(0,(0,_2)) - R(0,(2,_2)) = -34
 c100: _bool#50 = 0
 c101: - R(0,(0,_2)) + R(0,(1,_2)) = -96
 c102: _bool#51 = 0
 c103: R(0,(1,_2)) - R(0,(2,_2)) = -130
 c104: _bool#52 = 0
 c105: - R(0,(0,_2)) + R(0,(2,_2)) = 34
 c106: _bool#53 = 0
 c107: - R(0,(1,_2)) + R(0,(2,_2)) = 130
 c108: _bool#54 = 0
 c109: R(1,(0,_0)) - R(1,(1,_0)) = -62
 c110: _bool#55 = 0
 c111: R(1,(0,_0)) - R(1,(2,_0)) = 18
 c112: _bool#56 = 0
 c113: - R(1,(0,_0)) + R(1,(1,_0)) = 62
 c114: _bool#57 = 0
 c115: R(1,(1,_0)) - R(1,(2,_0)) = 80
 c116: _bool#58 = 0
 c117: - R(1,(0,_0)) + R(1,(2,_0)) = -18
 c118: _bool#59 = 0
 c119: - R(1,(1,_0)) + R(1,(2,_0)) = -80
 c120: _bool#60 = 0
 c121: R(1,(0,_1)) - R(1,(1,_1)) = -14
 c122: _bool#61 = 0
 c123: R(1,(0,_1)) - R(1,(2,_1)) = 156
 c124: _bool#62 = 0
 c125: - R(1,(0,_1)) + R(1,(1,_1)) = 14
 c126: _bool#63 = 0
 c127: R(1,(1,_1)) - R(1,(2,_1)) = 170
 c128: _bool#64 = 0
 c129: - R(1,(0,_1)) + R(1,(2,_1)) = -156
 c130: _bool#65 = 0
 c131: - R(1,(1,_1)) + R(1,(2,_1)) = -170
 c132: _bool#66 = 0
 c133: R(1,(0,_2)) - R(1,(1,_2)) = -104
 c134: _bool#67 = 0
 c135: R(1,(0,_2)) - R(1,(2,_2)) = 16
 c136: _bool#68 = 0
 c137: - R(1,(0,_2)) + R(1,(1,_2)) = 104
 c138: _bool#69 = 0
 c139: R(1,(1,_2)) - R(1,(2,_2)) = 120
 c140: _bool#70 = 0
 c141: - R(1,(0,_2)) + R(1,(2,_2)) = -16
 c142: _bool#71 = 0
 c143: - R(1,(1,_2)) + R(1,(2,_2)) = -120
 c144: _bool#72 = 0
 lc1: _bool#1 = 1 <-> R(0,(0,_0)) - R(0,(0,_1)) = 0
 lc2: _bool#2 = 1 <-> R(0,(0,_0)) - R(0,(0,_2)) = 0
 lc3: _bool#3 = 1 <-> = 0
 lc4: _bool#4 = 1 <-> R(0,(0,_1)) - R(0,(0,_2)) = 0
 lc5: _bool#5 = 1 <-> - R(0,(0,_1)) + R(0,(0,_2)) = 0
 lc6: _bool#6 = 1 <-> = 0
 lc7: _bool#7 = 1 <-> = 0
 lc8: _bool#8 = 1 <-> R(0,(1,_0)) - R(0,(1,_2)) = 0
 lc9: _bool#9 = 1 <-> - R(0,(1,_0)) + R(0,(1,_1)) = 0
 lc10: _bool#10 = 1 <-> R(0,(1,_1)) - R(0,(1,_2)) = 0
 lc11: _bool#11 = 1 <-> - R(0,(1,_0)) + R(0,(1,_2)) = 0
 lc12: _bool#12 = 1 <-> = 0
 lc13: _bool#13 = 1 <-> = 0
 lc14: _bool#14 = 1 <-> R(0,(2,_0)) - R(0,(2,_1)) = 0
 lc15: _bool#15 = 1 <-> - R(0,(2,_0)) + R(0,(2,_1)) = 0
 lc16: _bool#16 = 1 <-> = 0
 lc17: _bool#17 = 1 <-> - R(0,(2,_0)) + R(0,(2,_2)) = 0
 lc18: _bool#18 = 1 <-> - R(0,(2,_1)) + R(0,(2,_2)) = 0
 lc19: _bool#19 = 1 <-> R(1,(0,_0)) - R(1,(0,_1)) = 0
 lc20: _bool#20 = 1 <-> R(1,(0,_0)) - R(1,(0,_2)) = 0
 lc21: _bool#21 = 1 <-> = 0
 lc22: _bool#22 = 1 <-> R(1,(0,_1)) - R(1,(0,_2)) = 0
 lc23: _bool#23 = 1 <-> - R(1,(0,_1)) + R(1,(0,_2)) = 0
 lc24: _bool#24 = 1 <-> = 0
 lc25: _bool#25 = 1 <-> = 0
 lc26: _bool#26 = 1 <-> R(1,(1,_0)) - R(1,(1,_2)) = 0
 lc27: _bool#27 = 1 <-> - R(1,(1,_0)) + R(1,(1,_1)) = 0
 lc28: _bool#28 = 1 <-> R(1,(1,_1)) - R(1,(1,_2)) = 0
 lc29: _bool#29 = 1 <-> - R(1,(1,_0)) + R(1,(1,_2)) = 0
 lc30: _bool#30 = 1 <-> = 0
 lc31: _bool#31 = 1 <-> = 0
 lc32: _bool#32 = 1 <-> R(1,(2,_0)) - R(1,(2,_1)) = 0
 lc33: _bool#33 = 1 <-> - R(1,(2,_0)) + R(1,(2,_1)) = 0
 lc34: _bool#34 = 1 <-> = 0
 lc35: _bool#35 = 1 <-> - R(1,(2,_0)) + R(1,(2,_2)) = 0
 lc36: _bool#36 = 1 <-> - R(1,(2,_1)) + R(1,(2,_2)) = 0
 lc37: _bool#37 = 1 <-> R(0,(0,_0)) - R(0,(1,_0)) = 0
 lc38: _bool#38 = 1 <-> R(0,(0,_0)) - R(0,(2,_0)) = 0
 lc39: _bool#39 = 1 <-> - R(0,(0,_0)) + R(0,(1,_0)) = 0
 lc40: _bool#40 = 1 <-> R(0,(1,_0)) - R(0,(2,_0)) = 0
 lc41: _bool#41 = 1 <-> - R(0,(0,_0)) + R(0,(2,_0)) = 0
 lc42: _bool#42 = 1 <-> - R(0,(1,_0)) + R(0,(2,_0)) = 0
 lc43: _bool#43 = 1 <-> R(0,(0,_1)) - R(0,(1,_1)) = 0
 lc44: _bool#44 = 1 <-> R(0,(0,_1)) - R(0,(2,_1)) = 0
 lc45: _bool#45 = 1 <-> - R(0,(0,_1)) + R(0,(1,_1)) = 0
 lc46: _bool#46 = 1 <-> R(0,(1,_1)) - R(0,(2,_1)) = 0
 lc47: _bool#47 = 1 <-> - R(0,(0,_1)) + R(0,(2,_1)) = 0
 lc48: _bool#48 = 1 <-> - R(0,(1,_1)) + R(0,(2,_1)) = 0
 lc49: _bool#49 = 1 <-> R(0,(0,_2)) - R(0,(1,_2)) = 0
 lc50: _bool#50 = 1 <-> R(0,(0,_2)) - R(0,(2,_2)) = 0
 lc51: _bool#51 = 1 <-> - R(0,(0,_2)) + R(0,(1,_2)) = 0
 lc52: _bool#52 = 1 <-> R(0,(1,_2)) - R(0,(2,_2)) = 0
 lc53: _bool#53 = 1 <-> - R(0,(0,_2)) + R(0,(2,_2)) = 0
 lc54: _bool#54 = 1 <-> - R(0,(1,_2)) + R(0,(2,_2)) = 0
 lc55: _bool#55 = 1 <-> R(1,(0,_0)) - R(1,(1,_0)) = 0
 lc56: _bool#56 = 1 <-> R(1,(0,_0)) - R(1,(2,_0)) = 0
 lc57: _bool#57 = 1 <-> - R(1,(0,_0)) + R(1,(1,_0)) = 0
 lc58: _bool#58 = 1 <-> R(1,(1,_0)) - R(1,(2,_0)) = 0
 lc59: _bool#59 = 1 <-> - R(1,(0,_0)) + R(1,(2,_0)) = 0
 lc60: _bool#60 = 1 <-> - R(1,(1,_0)) + R(1,(2,_0)) = 0
 lc61: _bool#61 = 1 <-> R(1,(0,_1)) - R(1,(1,_1)) = 0
 lc62: _bool#62 = 1 <-> R(1,(0,_1)) - R(1,(2,_1)) = 0
 lc63: _bool#63 = 1 <-> - R(1,(0,_1)) + R(1,(1,_1)) = 0
 lc64: _bool#64 = 1 <-> R(1,(1,_1)) - R(1,(2,_1)) = 0
 lc65: _bool#65 = 1 <-> - R(1,(0,_1)) + R(1,(2,_1)) = 0
 lc66: _bool#66 = 1 <-> - R(1,(1,_1)) + R(1,(2,_1)) = 0
 lc67: _bool#67 = 1 <-> R(1,(0,_2)) - R(1,(1,_2)) = 0
 lc68: _bool#68 = 1 <-> R(1,(0,_2)) - R(1,(2,_2)) = 0
 lc69: _bool#69 = 1 <-> - R(1,(0,_2)) + R(1,(1,_2)) = 0
 lc70: _bool#70 = 1 <-> R(1,(1,_2)) - R(1,(2,_2)) = 0
 lc71: _bool#71 = 1 <-> - R(1,(0,_2)) + R(1,(2,_2)) = 0
 lc72: _bool#72 = 1 <-> - R(1,(1,_2)) + R(1,(2,_2)) = 0

Bounds
       R(0,(0,_0)) = -2
 -102 <= R(0,(0,_1)) <= -20
 -4 <= R(0,(0,_2)) <= 60
 -100 <= R(0,(1,_0)) <= -4
       R(0,(1,_1)) = -20
 -100 <= R(0,(1,_2)) <= 100
       R(0,(2,_0)) <= 56
 -100 <= R(0,(2,_1)) <= 100
 30 <= R(0,(2,_2)) <= 70
       R(1,(0,_0)) = -2
       R(1,(0,_1)) <= 56
 -100 <= R(1,(0,_2)) <= -4
 -4 <= R(1,(1,_0)) <= 60
 30 <= R(1,(1,_1)) <= 70
 -100 <= R(1,(1,_2)) <= 100
 -102 <= R(1,(2,_0)) <= -20
       R(1,(2,_1)) = -100
       R(1,(2,_2)) = -20
 0 <= _bool#1 <= 1
 0 <= _bool#2 <= 1
 0 <= _bool#3 <= 1
 0 <= _bool#4 <= 1
 0 <= _bool#5 <= 1
 0 <= _bool#6 <= 1
 0 <= _bool#7 <= 1
 0 <= _bool#8 <= 1
 0 <= _bool#9 <= 1
 0 <= _bool#10 <= 1
 0 <= _bool#11 <= 1
 0 <= _bool#12 <= 1
 0 <= _bool#13 <= 1
 0 <= _bool#14 <= 1
 0 <= _bool#15 <= 1
 0 <= _bool#16 <= 1
 0 <= _bool#17 <= 1
 0 <= _bool#18 <= 1
 0 <= _bool#19 <= 1
 0 <= _bool#20 <= 1
 0 <= _bool#21 <= 1
 0 <= _bool#22 <= 1
 0 <= _bool#23 <= 1
 0 <= _bool#24 <= 1
 0 <= _bool#25 <= 1
 0 <= _bool#26 <= 1
 0 <= _bool#27 <= 1
 0 <= _bool#28 <= 1
 0 <= _bool#29 <= 1
 0 <= _bool#30 <= 1
 0 <= _bool#31 <= 1
 0 <= _bool#32 <= 1
 0 <= _bool#33 <= 1
 0 <= _bool#34 <= 1
 0 <= _bool#35 <= 1
 0 <= _bool#36 <= 1
 0 <= _bool#37 <= 1
 0 <= _bool#38 <= 1
 0 <= _bool#39 <= 1
 0 <= _bool#40 <= 1
 0 <= _bool#41 <= 1
 0 <= _bool#42 <= 1
 0 <= _bool#43 <= 1
 0 <= _bool#44 <= 1
 0 <= _bool#45 <= 1
 0 <= _bool#46 <= 1
 0 <= _bool#47 <= 1
 0 <= _bool#48 <= 1
 0 <= _bool#49 <= 1
 0 <= _bool#50 <= 1
 0 <= _bool#51 <= 1
 0 <= _bool#52 <= 1
 0 <= _bool#53 <= 1
 0 <= _bool#54 <= 1
 0 <= _bool#55 <= 1
 0 <= _bool#56 <= 1
 0 <= _bool#57 <= 1
 0 <= _bool#58 <= 1
 0 <= _bool#59 <= 1
 0 <= _bool#60 <= 1
 0 <= _bool#61 <= 1
 0 <= _bool#62 <= 1
 0 <= _bool#63 <= 1
 0 <= _bool#64 <= 1
 0 <= _bool#65 <= 1
 0 <= _bool#66 <= 1
 0 <= _bool#67 <= 1
 0 <= _bool#68 <= 1
 0 <= _bool#69 <= 1
 0 <= _bool#70 <= 1
 0 <= _bool#71 <= 1
 0 <= _bool#72 <= 1

Binaries
 _bool#1 _bool#2 _bool#3 _bool#4 _bool#5 _bool#6 _bool#7 _bool#8 _bool#9
 _bool#10 _bool#11 _bool#12 _bool#13 _bool#14 _bool#15 _bool#16 _bool#17
 _bool#18 _bool#19 _bool#20 _bool#21 _bool#22 _bool#23 _bool#24 _bool#25
 _bool#26 _bool#27 _bool#28 _bool#29 _bool#30 _bool#31 _bool#32 _bool#33
 _bool#34 _bool#35 _bool#36 _bool#37 _bool#38 _bool#39 _bool#40 _bool#41
 _bool#42 _bool#43 _bool#44 _bool#45 _bool#46 _bool#47 _bool#48 _bool#49
 _bool#50 _bool#51 _bool#52 _bool#53 _bool#54 _bool#55 _bool#56 _bool#57
 _bool#58 _bool#59 _bool#60 _bool#61 _bool#62 _bool#63 _bool#64 _bool#65
 _bool#66 _bool#67 _bool#68 _bool#69 _bool#70 _bool#71 _bool#72

Generals
 R(0,(0,_0)) R(0,(0,_1)) R(0,(0,_2)) R(0,(1,_0)) R(0,(1,_1)) R(0,(1,_2))
 R(0,(2,_0)) R(0,(2,_1)) R(0,(2,_2)) R(1,(0,_0)) R(1,(0,_1)) R(1,(0,_2))
 R(1,(1,_0)) R(1,(1,_1)) R(1,(1,_2)) R(1,(2,_0)) R(1,(2,_1)) R(1,(2,_2))
End
